(set-option :produce-models true)
(set-logic QF_UF)
(declare-fun p1() Bool)
(declare-fun p17() Bool)
(declare-fun p13() Bool)
(declare-fun p42() Bool)
(declare-fun p40() Bool)
(declare-fun p25() Bool)
(declare-fun p0() Bool)
(declare-fun p28() Bool)
(declare-fun p41() Bool)
(declare-fun p65() Bool)
(declare-fun p6() Bool)
(declare-fun p20() Bool)
(declare-fun p34() Bool)
(declare-fun p61() Bool)
(declare-fun p73() Bool)
(declare-fun p49() Bool)
(declare-fun p64() Bool)
(declare-fun p2() Bool)
(declare-fun p66() Bool)
(declare-fun p9() Bool)
(declare-fun p70() Bool)
(declare-fun p18() Bool)
(declare-fun p3() Bool)
(declare-fun p67() Bool)
(declare-fun p12() Bool)
(declare-fun p71() Bool)
(declare-fun p19() Bool)
(declare-fun p37() Bool)
(declare-fun p53() Bool)
(declare-fun p22() Bool)
(declare-fun p54() Bool)
(declare-fun p44() Bool)
(declare-fun p56() Bool)
(declare-fun p4() Bool)
(declare-fun p59() Bool)
(declare-fun p35() Bool)
(declare-fun p33() Bool)
(declare-fun p79() Bool)
(declare-fun p15() Bool)
(declare-fun p23() Bool)
(declare-fun p11() Bool)
(declare-fun p21() Bool)
(declare-fun p58() Bool)
(declare-fun p46() Bool)
(declare-fun p57() Bool)
(declare-fun p14() Bool)
(declare-fun p78() Bool)
(declare-fun p26() Bool)
(declare-fun p77() Bool)
(declare-fun p48() Bool)
(declare-fun p39() Bool)
(declare-fun p55() Bool)
(declare-fun p52() Bool)
(declare-fun p75() Bool)
(declare-fun p50() Bool)
(declare-fun p74() Bool)
(declare-fun p5() Bool)
(declare-fun p62() Bool)
(declare-fun p24() Bool)
(declare-fun p32() Bool)
(declare-fun p8() Bool)
(declare-fun p60() Bool)
(declare-fun p31() Bool)
(declare-fun p36() Bool)
(declare-fun p16() Bool)
(declare-fun p7() Bool)
(declare-fun p43() Bool)
(declare-fun p69() Bool)
(declare-fun p10() Bool)
(declare-fun p63() Bool)
(declare-fun p27() Bool)
(declare-fun p30() Bool)
(declare-fun p72() Bool)
(declare-fun p38() Bool)
(declare-fun p47() Bool)
(declare-fun p76() Bool)
(declare-fun p68() Bool)
(declare-fun p51() Bool)
(declare-fun p45() Bool)
(declare-fun p29() Bool)
(assert
(and (or (not p1) (not p17) p13) (or (not p42) p40 (not p25)) (or (not p0) p28 p41) (or p65 (not p17) p6) (or (not p1) (not p20) (not p34)) (or (not p61) p73 (not p25)) (or (not p49) (not p49) (not p64)) (or (not p2) (not p66) (not p9)) (or p73 (not p70) p18) (or (not p3) (not p67) (not p13)) (or (not p28) p61 p12) (or (not p65) p49 (not p71)) (or (not p67) (not p19) (not p37)) (or (not p64) p53 p28) (or (not p22) (not p54) p44) (or p0 (not p67) p56) (or (not p4) (not p59) p41) (or (not p6) (not p37) (not p28)) (or (not p35) (not p35) (not p33)) (or (not p79) (not p15) p23) (or p54 p11 p21) (or p58 (not p46) p25) (or p2 (not p20) p42) (or p57 p11 (not p41)) (or (not p37) p14 (not p22)) (or (not p9) p78 (not p26)) (or p65 p42 p49) (or p0 p77 (not p66)) (or p48 (not p39) p12) (or p55 p52 (not p75)) (or (not p50) (not p28) (not p78)) (or (not p1) (not p52) p74) (or p70 (not p5) p23) (or (not p54) p78 p78) (or (not p79) p58 (not p62)) (or p74 (not p14) p4) (or p18 (not p11) (not p12)) (or p73 p41 (not p5)) (or (not p24) p58 p73) (or (not p32) (not p44) (not p8)) (or p60 p65 p54) (or p4 p74 p50) (or p31 p36 p6) (or (not p70) (not p40) (not p46)) (or p21 p19 p2) (or (not p36) p2 (not p39)) (or p20 (not p52) (not p5)) (or (not p64) p16 (not p3)) (or p39 p28 p19) (or (not p65) (not p55) p65) (or p11 p20 (not p32)) (or (not p78) p52 p49) (or (not p15) (not p7) p39) (or p43 (not p69) (not p22)) (or p79 p10 (not p69)) (or (not p43) p35 p63) (or (not p48) p28 p12) (or (not p42) (not p27) p54) (or (not p42) (not p61) (not p10)) (or (not p30) p75 p64) (or (not p28) (not p42) p74) (or (not p7) p27 (not p55)) (or (not p11) (not p72) (not p54)) (or (not p49) (not p70) (not p0)) (or p9 (not p30) p38) (or p63 p18 (not p50)) (or p11 (not p1) p18) (or p5 p73 p17) (or p70 (not p71) (not p56)) (or p31 (not p77) p50) (or p20 p48 p34) (or (not p47) (not p64) (not p28)) (or p33 p76 (not p34)) (or p18 p69 p69) (or p24 (not p38) p58) (or p68 (not p77) p12) (or (not p46) p35 (not p21)) (or (not p79) p58 p66) (or p51 p1 (not p56)) (or (not p72) p71 p12) (or (not p78) (not p40) p41) (or p7 (not p35) p50) (or p52 (not p34) p51) (or (not p60) (not p54) (not p24)) (or (not p1) p31 p32) (or p68 p30 (not p18)) (or (not p70) p4 (not p53)) (or p78 (not p19) p74) (or p17 (not p15) (not p32)) (or (not p68) (not p11) p13) (or p79 p1 (not p20)) (or p35 p54 (not p3)) (or (not p69) (not p68) p52) (or (not p44) p10 p49) (or p10 (not p58) (not p31)) (or p56 p48 p34) (or p70 p39 (not p37)) (or (not p65) (not p46) (not p63)) (or p30 (not p75) (not p64)) (or (not p15) p65 p25) (or (not p74) (not p37) p50) (or p25 (not p2) p13) (or p2 (not p0) p70) (or p44 (not p44) (not p19)) (or p2 (not p50) p49) (or p24 p0 p48) (or (not p20) (not p15) (not p35)) (or (not p23) p61 p59) (or p74 (not p1) (not p8)) (or p14 (not p25) (not p42)) (or (not p45) p12 p66) (or p69 (not p3) p14) (or p36 (not p73) (not p5)) (or (not p5) p22 (not p27)) (or (not p44) (not p75) p22) (or (not p39) p1 p56) (or (not p57) (not p14) p30) (or p63 (not p21) p75) (or p69 p13 p40) (or p61 (not p9) p68) (or (not p38) (not p35) (not p13)) (or (not p22) (not p72) (not p44)) (or (not p60) p34 p24) (or p44 (not p73) p54) (or (not p6) (not p48) (not p52)) (or (not p68) p16 (not p21)) (or p11 (not p47) p69) (or (not p66) (not p31) (not p75)) (or (not p9) p12 (not p1)) (or p26 (not p31) (not p67)) (or p68 (not p5) p35) (or (not p2) p64 (not p24)) (or p25 p49 (not p38)) (or p5 (not p3) p18) (or (not p28) p69 (not p65)) (or (not p67) p10 p56) (or (not p45) p79 (not p79)) (or p35 (not p38) (not p32)) (or (not p30) p43 (not p14)) (or p60 p35 p72) (or (not p52) (not p38) p56) (or (not p30) p27 p26) (or p32 (not p78) p78) (or (not p18) (not p18) p37) (or (not p55) (not p61) p3) (or (not p55) (not p12) p56) (or (not p77) p73 (not p37)) (or (not p27) (not p67) p77) (or (not p66) (not p65) p75) (or p58 p55 (not p10)) (or (not p54) (not p18) (not p40)) (or (not p35) p63 (not p59)) (or (not p41) (not p52) (not p0)) (or (not p41) (not p62) (not p29)) (or (not p62) (not p44) p3) (or p51 (not p33) p4) (or (not p44) (not p58) (not p23)) (or p26 (not p54) p0) (or p58 (not p2) (not p3)) (or (not p58) p61 p7) (or p78 p57 (not p21)) (or p67 (not p16) (not p40)) (or p27 p26 p9) (or (not p44) p50 (not p10)) (or p15 (not p54) p0) (or (not p62) p60 p44) (or (not p0) (not p60) (not p1)) (or (not p48) (not p72) p72) (or p76 (not p47) p73) (or (not p63) (not p68) (not p66)) (or p35 p6 p21) (or (not p30) p59 p78) (or p72 (not p65) (not p50)) (or (not p57) p61 p63) (or p55 p5 p73) (or (not p45) p79 p29) (or p33 p31 (not p31)) (or (not p72) p48 (not p5)) (or p67 p58 p45) (or (not p2) p53 p50) (or (not p9) (not p68) (not p20)) (or p64 p46 (not p30)) (or (not p71) (not p14) (not p65)) (or (not p45) p3 p58) (or p55 p14 (not p36)) (or (not p76) (not p27) (not p30)) (or p49 (not p27) (not p50)) (or p38 p73 p74) (or p66 (not p0) p41) (or (not p26) p10 (not p30)) (or (not p36) (not p0) (not p6)) (or (not p30) p71 p18) (or (not p1) p75 (not p29)) (or p11 p63 (not p44)) (or (not p29) p8 (not p46)) (or (not p40) (not p68) p42) (or p25 p17 p27) (or p16 (not p41) (not p71)) (or (not p25) p0 (not p16)) (or (not p30) (not p32) (not p45)) (or (not p12) (not p46) (not p58)) (or p7 (not p54) p0) (or (not p15) (not p76) p38) (or p73 p67 (not p75)) (or (not p18) p60 p64) (or (not p28) p42 p20) (or (not p46) p28 p15) (or p64 p37 p3) (or (not p64) p27 (not p54)) (or p20 (not p63) (not p14)) (or (not p76) p40 (not p25)) (or p42 p69 (not p37)) (or p73 (not p34) p6) (or p77 p57 p17) (or p19 (not p29) (not p65)) (or p23 p31 p77) (or (not p12) (not p13) p53) (or p73 (not p73) (not p25)) (or (not p33) (not p58) p47) (or (not p49) p78 p68) (or p68 (not p44) p22) (or p48 (not p23) (not p74)) (or p20 (not p20) (not p58)) (or p8 (not p73) (not p25)) (or (not p62) p44 (not p22)) (or p60 p70 (not p9)) (or p38 p42 p28) (or p19 p65 p37) (or (not p35) p29 p53) (or (not p70) (not p39) (not p64)) (or p67 (not p14) p42) (or (not p59) p16 (not p21)) (or p41 (not p8) p63) (or (not p40) (not p40) p24) (or (not p61) (not p56) p59) (or p25 (not p68) (not p25)) (or (not p0) p4 (not p79)) (or p52 p46 (not p22)) (or p50 (not p16) p28) (or p24 p34 p66) (or (not p62) p77 (not p36)) (or p8 (not p69) (not p47)) (or p50 (not p48) (not p69)) (or (not p46) p63 (not p64)) (or (not p47) p56 p75) (or p76 (not p33) (not p31)) (or (not p71) (not p60) p50) (or p77 p65 (not p65)) (or p37 p78 p16) (or (not p60) (not p54) p12) (or (not p9) p7 (not p24)) (or (not p78) (not p60) (not p45)) (or (not p47) (not p11) p26) (or (not p72) (not p41) p1) (or (not p37) p26 (not p74)) (or p5 p0 (not p23)) (or p65 (not p42) p11) (or (not p2) (not p2) p61) (or (not p51) (not p11) (not p0)) (or (not p72) p22 (not p55)) (or p71 p40 (not p56)) (or (not p30) (not p17) (not p35)) (or (not p43) p48 p61) (or p17 (not p67) (not p11)) (or p31 (not p26) p67) (or (not p61) p69 p52) (or p42 p56 p2) (or (not p59) p13 p53) (or (not p75) (not p21) p58) (or p11 p5 p65) (or (not p61) p44 (not p27)) (or p1 p49 p22) (or (not p8) p65 p4) (or p32 (not p14) (not p20)) (or (not p65) p78 (not p61)) (or (not p43) (not p30) p64) (or (not p38) p34 p16) (or p75 p4 (not p37)) (or (not p77) (not p6) p1) (or (not p74) p68 p17) (or (not p12) (not p11) (not p49)) (or p66 (not p75) (not p17)) (or p22 (not p44) (not p40)) (or (not p27) (not p30) (not p19)) (or (not p78) p24 (not p65)) (or p78 p61 p30) (or p70 (not p47) (not p35)) (or (not p17) (not p22) (not p73)) (or (not p69) p48 (not p40)) (or p10 (not p62) p35) (or (not p48) p25 (not p55)) (or p19 p15 (not p44)) (or p4 (not p76) p34) (or p3 (not p36) (not p43)) (or (not p43) (not p53) (not p35)) (or (not p12) (not p52) (not p28)) (or (not p10) (not p47) p67) (or (not p2) p59 p18) (or (not p50) (not p54) p22) (or (not p58) (not p23) p11) (or p17 p10 (not p31)) (or p79 p44 p47) (or (not p13) (not p45) p73) (or p55 p62 (not p43)) (or (not p42) p3 p2) (or p55 p54 p57) (or (not p54) (not p30) (not p13)) (or p43 p31 (not p0)) (or p58 (not p43) p64) (or p21 (not p13) p14) (or p3 (not p7) (not p9)) (or (not p27) p19 p41) (or (not p29) (not p34) p2) (or (not p70) p55 (not p6)) (or p3 (not p38) p59) (or p35 p32 p64) (or p29 (not p32) (not p55)) (or (not p30) p30 (not p61)) (or p64 p14 p33) (or (not p23) (not p56) p57) (or p56 (not p10) p58) (or p31 p40 (not p54)) (or p9 (not p78) (not p60)) (or p48 p7 (not p16)) (or p67 (not p53) p13) (or p33 p42 (not p69)) (or p33 p23 p72) (or (not p58) (not p65) p3) (or p38 (not p19) p57) (or (not p53) p52 (not p76)) (or (not p64) p15 (not p52)) (or p66 (not p33) p6) (or (not p13) (not p0) (not p73)) (or (not p42) p30 p79) (or p12 p62 p65) (or p37 p37 p78) (or p0 (not p16) (not p27)))
)
(check-sat)
(get-model)
